\ This file has been generated by DOcplex
\ ENCODING=ISO-8859-1
\Problem name: tiger problem

Maximize
 obj: V0 + V1 + V2
Subject To
 c1: V0 - 2 a1_0 - 46 a1_1 - 46 a1_2 <= 0
 c2: V1 - 46 a1_0 - 15 a1_1 - 100 a1_2 <= 0
 c3: V2 - 46 a1_0 - 100 a1_1 - 15 a1_2 <= 0
 c4: a1_0 + a1_1 + a1_2 = 1

Bounds
       a1_0 <= 1
       a1_1 <= 1
       a1_2 <= 1
End
